(set-logic HORN)
(declare-fun !inv0 (Int (Array Int Int) (Array Int Int) Int ) Bool)
(declare-fun !inv1 (Int (Array Int Int) (Array Int Int) Int Int ) Bool)
(assert (forall ((SIZE@0 Int)(b@0 (Array Int Int))(a@0 (Array Int Int))(i@0 Int)) (=> (and (> |SIZE@0| 0) (= |i@0| 0)) (!inv0 |SIZE@0| |a@0| |b@0| |i@0|))))
(assert (forall ((SIZE@0 Int)(a@0 (Array Int Int))(b@0 (Array Int Int))(i@0 Int)(j@0 Int)) (=> (and (!inv0 |SIZE@0| |a@0| |b@0| |i@0|) (not (< |i@0| |SIZE@0|)) (= |j@0| 0)) (!inv1 |SIZE@0| |a@0| |b@0| |i@0| |j@0|))))
(assert (forall ((SIZE@0 Int)(a@0 (Array Int Int))(b@0 (Array Int Int))(i@0 Int)(j@0 Int)) (=> (and (!inv1 |SIZE@0| |a@0| |b@0| |i@0| |j@0|) (< |j@0| |SIZE@0|) (= (select |a@0| |j@0|) 10) (not (= (select |b@0| |j@0|) 20))) false)))
(assert (forall ((SIZE@0 Int)(a@0 (Array Int Int))(b@0 (Array Int Int))(i@0 Int)(i@1 Int)) (=> (and (!inv0 |SIZE@0| |a@0| |b@0| |i@0|) (= |i@1| (+ |i@0| 2)) (< |i@0| |SIZE@0|) (not (= (select |a@0| |i@0|) 10))) (!inv0 |SIZE@0| |a@0| |b@0| |i@1|))))
(assert (forall ((SIZE@0 Int)(a@0 (Array Int Int))(b@0 (Array Int Int))(i@0 Int)(i@1 Int)(b@1 (Array Int Int))) (=> (and (!inv0 |SIZE@0| |a@0| |b@1| |i@0|) (= |i@1| (+ |i@0| 2)) (< |i@0| |SIZE@0|) (= (select |a@0| |i@0|) 10) (= |b@0| (store |b@1| |i@0| 20))) (!inv0 |SIZE@0| |a@0| |b@0| |i@1|))))
(assert (forall ((SIZE@0 Int)(a@0 (Array Int Int))(b@0 (Array Int Int))(i@0 Int)(j@0 Int)(j@1 Int)) (=> (and (!inv1 |SIZE@0| |a@0| |b@0| |i@0| |j@0|) (= |j@1| (+ |j@0| 2)) (< |j@0| |SIZE@0|) (= (select |a@0| |j@0|) 10) (= (select |b@0| |j@0|) 20)) (!inv1 |SIZE@0| |a@0| |b@0| |i@0| |j@1|))))
(assert (forall ((SIZE@0 Int)(a@0 (Array Int Int))(b@0 (Array Int Int))(i@0 Int)(j@0 Int)(j@1 Int)) (=> (and (!inv1 |SIZE@0| |a@0| |b@0| |i@0| |j@0|) (= |j@1| (+ |j@0| 2)) (< |j@0| |SIZE@0|) (not (= (select |a@0| |j@0|) 10))) (!inv1 |SIZE@0| |a@0| |b@0| |i@0| |j@1|))))
(check-sat)